VertexID	Color
3	1
1	1
9	1
50	1
5	1
25	1
26	1
27	1
28	1
29	1
30	1
31	1
32	1
33	1
34	1
35	1
36	1
2	2
10	2
14	2
22	2
49	2
6	2
8	2
18	2
20	2
15	3
4	3
12	3
16	3
24	3
51	3
37	3
38	3
39	3
40	3
41	3
42	3
43	3
44	3
45	3
46	3
47	3
48	3
13	4
23	4
11	4
52	4
7	4
19	4
21	5
17	5
